Minimize
  obj: x0 + x1 + x2 + x3 + x4 + x5 + x6 + x7 + x8

Subject To
  c0: x3 + x5 + x6 = 31
  c1: x3 + x4 + x5 + x6 + x7 = 48
  c2: x1 + x3 + x7 = 17
  c3: x1 + x2 + x3 + x5 + x7 + x8 = 207
  c4: x0 + x3 + x7 = 17
  c5: x0 + x1 + x4 + x5 + x7 + x8 = 203
  c6: x0 + x2 + x3 + x4 + x6 + x8 = 231
  c7: x2 + x4 + x6 + x7 = 43

Bounds
  x0 >= 0
  x1 >= 0
  x2 >= 0
  x3 >= 0
  x4 >= 0
  x5 >= 0
  x6 >= 0
  x7 >= 0
  x8 >= 0

Generals
  x0 x1 x2 x3 x4 x5 x6 x7 x8

End
